
Gurobi 8.1.1 (mac64, Python) logging started Sun Dec  1 20:40:27 2019

Academic license - for non-commercial use only
Optimize a model with 9 rows, 20 columns and 40 nonzeros
Variable types: 0 continuous, 20 integer (0 binary)
Coefficient statistics:
  Matrix range     [1e+00, 1e+00]
  Objective range  [2e+01, 2e+03]
  Bounds range     [1e+01, 9e+03]
  RHS range        [2e+02, 4e+03]
Presolve time: 0.00s

Explored 0 nodes (0 simplex iterations) in 0.02 seconds
Thread count was 1 (of 4 available processors)

Solution count 0

Model is infeasible
Best objective -, best bound -, gap -

Gurobi 8.1.1 (mac64, Python) logging started Sun Dec  1 20:40:52 2019

Academic license - for non-commercial use only
Optimize a model with 9 rows, 20 columns and 40 nonzeros
Variable types: 0 continuous, 20 integer (0 binary)
Coefficient statistics:
  Matrix range     [1e+00, 1e+00]
  Objective range  [2e+01, 2e+03]
  Bounds range     [1e+01, 9e+03]
  RHS range        [2e+02, 4e+03]
Presolve time: 0.00s

Explored 0 nodes (0 simplex iterations) in 0.02 seconds
Thread count was 1 (of 4 available processors)

Solution count 0

Model is infeasible
Best objective -, best bound -, gap -
Optimize a model with 9 rows, 20 columns and 40 nonzeros
Variable types: 0 continuous, 20 integer (0 binary)
Coefficient statistics:
  Matrix range     [1e+00, 1e+00]
  Objective range  [2e+01, 2e+03]
  Bounds range     [1e+01, 9e+03]
  RHS range        [2e+02, 4e+03]
Presolve time: 0.00s

Explored 0 nodes (0 simplex iterations) in 0.02 seconds
Thread count was 1 (of 4 available processors)

Solution count 0

Model is infeasible
Best objective -, best bound -, gap -
Optimize a model with 9 rows, 20 columns and 40 nonzeros
Coefficient statistics:
  Matrix range     [1e+00, 1e+00]
  Objective range  [2e+01, 2e+03]
  Bounds range     [1e+01, 9e+03]
  RHS range        [2e+02, 4e+03]
Presolve time: 0.02s

Solved in 0 iterations and 0.03 seconds
Infeasible model

Gurobi 8.1.1 (mac64, Python) logging started Mon Dec  2 13:19:30 2019

Academic license - for non-commercial use only
Optimize a model with 9 rows, 20 columns and 40 nonzeros
Coefficient statistics:
  Matrix range     [1e+00, 1e+00]
  Objective range  [2e+01, 2e+03]
  Bounds range     [1e+01, 9e+03]
  RHS range        [2e+02, 4e+03]
Presolve time: 0.01s

Solved in 0 iterations and 0.02 seconds
Infeasible model

Gurobi 8.1.1 (mac64, Python) logging started Mon Dec  2 19:24:32 2019

Academic license - for non-commercial use only
Optimize a model with 29 rows, 40 columns and 80 nonzeros
Coefficient statistics:
  Matrix range     [1e+00, 1e+00]
  Objective range  [2e+01, 2e+03]
  Bounds range     [0e+00, 0e+00]
  RHS range        [1e+01, 9e+03]
Presolve removed 13 rows and 13 columns
Presolve time: 0.02s
Presolved: 16 rows, 27 columns, 60 nonzeros

Iteration    Objective       Primal Inf.    Dual Inf.      Time
       0    1.1629422e+06   1.872707e+02   0.000000e+00      0s
      16    1.7490220e+06   0.000000e+00   0.000000e+00      0s

Solved in 16 iterations and 0.04 seconds
Optimal objective  1.749022000e+06
Optimize a model with 29 rows, 20 columns and 60 nonzeros
Coefficient statistics:
  Matrix range     [1e+00, 1e+00]
  Objective range  [2e+01, 2e+03]
  Bounds range     [0e+00, 0e+00]
  RHS range        [1e+01, 9e+03]
Presolve removed 20 rows and 0 columns
Presolve time: 0.01s

Solved in 0 iterations and 0.01 seconds
Infeasible model
Optimize a model with 29 rows, 20 columns and 60 nonzeros
Coefficient statistics:
  Matrix range     [1e+00, 1e+00]
  Objective range  [2e+01, 2e+03]
  Bounds range     [0e+00, 0e+00]
  RHS range        [1e+01, 9e+03]
Presolve removed 20 rows and 0 columns
Presolve time: 0.03s

Solved in 0 iterations and 0.03 seconds
Infeasible model
Optimize a model with 29 rows, 20 columns and 60 nonzeros
Coefficient statistics:
  Matrix range     [1e+00, 1e+00]
  Objective range  [2e+01, 2e+03]
  Bounds range     [0e+00, 0e+00]
  RHS range        [1e+01, 9e+03]
Presolve removed 29 rows and 20 columns
Presolve time: 0.02s
Presolve: All rows and columns removed
Iteration    Objective       Primal Inf.    Dual Inf.      Time
       0    4.6007870e+06   0.000000e+00   0.000000e+00      0s

Solved in 0 iterations and 0.03 seconds
Optimal objective  4.600787000e+06

Gurobi 8.1.1 (mac64, Python) logging started Mon Dec  2 21:59:55 2019

Academic license - for non-commercial use only
Optimize a model with 12 rows, 23 columns and 46 nonzeros
Variable types: 0 continuous, 23 integer (0 binary)
Coefficient statistics:
  Matrix range     [1e+00, 1e+00]
  Objective range  [1e+00, 1e+00]
  Bounds range     [2e+00, 1e+01]
  RHS range        [0e+00, 0e+00]
Found heuristic solution: objective -0.0000000
Presolve removed 1 rows and 2 columns
Presolve time: 0.02s
Presolved: 11 rows, 21 columns, 43 nonzeros
Variable types: 0 continuous, 21 integer (0 binary)

Root relaxation: objective 1.200000e+01, 7 iterations, 0.00 seconds

    Nodes    |    Current Node    |     Objective Bounds      |     Work
 Expl Unexpl |  Obj  Depth IntInf | Incumbent    BestBd   Gap | It/Node Time

*    0     0               0      12.0000000   12.00000  0.00%     -    0s

Explored 0 nodes (7 simplex iterations) in 0.08 seconds
Thread count was 4 (of 4 available processors)

Solution count 2: 12 -0 

Optimal solution found (tolerance 1.00e-04)
Best objective 1.200000000000e+01, best bound 1.200000000000e+01, gap 0.0000%
Optimize a model with 12 rows, 23 columns and 46 nonzeros
Variable types: 0 continuous, 23 integer (0 binary)
Coefficient statistics:
  Matrix range     [1e+00, 1e+00]
  Objective range  [1e+00, 1e+00]
  Bounds range     [2e+00, 1e+01]
  RHS range        [0e+00, 0e+00]
Found heuristic solution: objective -0.0000000
Presolve removed 1 rows and 2 columns
Presolve time: 0.00s
Presolved: 11 rows, 21 columns, 43 nonzeros
Variable types: 0 continuous, 21 integer (0 binary)

Root relaxation: objective 1.200000e+01, 7 iterations, 0.00 seconds

    Nodes    |    Current Node    |     Objective Bounds      |     Work
 Expl Unexpl |  Obj  Depth IntInf | Incumbent    BestBd   Gap | It/Node Time

*    0     0               0      12.0000000   12.00000  0.00%     -    0s

Explored 0 nodes (7 simplex iterations) in 0.10 seconds
Thread count was 4 (of 4 available processors)

Solution count 2: 12 -0 

Optimal solution found (tolerance 1.00e-04)
Best objective 1.200000000000e+01, best bound 1.200000000000e+01, gap 0.0000%

Gurobi 8.1.1 (mac64, Python) logging started Mon Dec  2 23:25:46 2019

Academic license - for non-commercial use only
Optimize a model with 12 rows, 23 columns and 46 nonzeros
Variable types: 0 continuous, 23 integer (0 binary)
Coefficient statistics:
  Matrix range     [1e+00, 1e+00]
  Objective range  [1e+00, 1e+00]
  Bounds range     [2e+00, 1e+01]
  RHS range        [0e+00, 0e+00]
Found heuristic solution: objective -0.0000000
Presolve removed 1 rows and 2 columns
Presolve time: 0.00s
Presolved: 11 rows, 21 columns, 43 nonzeros
Variable types: 0 continuous, 21 integer (0 binary)

Root relaxation: objective 1.200000e+01, 7 iterations, 0.00 seconds

    Nodes    |    Current Node    |     Objective Bounds      |     Work
 Expl Unexpl |  Obj  Depth IntInf | Incumbent    BestBd   Gap | It/Node Time

*    0     0               0      12.0000000   12.00000  0.00%     -    0s

Explored 0 nodes (7 simplex iterations) in 0.03 seconds
Thread count was 4 (of 4 available processors)

Solution count 2: 12 -0 

Optimal solution found (tolerance 1.00e-04)
Best objective 1.200000000000e+01, best bound 1.200000000000e+01, gap 0.0000%
Optimize a model with 12 rows, 23 columns and 46 nonzeros
Variable types: 0 continuous, 23 integer (0 binary)
Coefficient statistics:
  Matrix range     [1e+00, 1e+00]
  Objective range  [1e+00, 1e+00]
  Bounds range     [2e+00, 1e+01]
  RHS range        [0e+00, 0e+00]
Found heuristic solution: objective -0.0000000
Presolve removed 1 rows and 2 columns
Presolve time: 0.00s
Presolved: 11 rows, 21 columns, 43 nonzeros
Variable types: 0 continuous, 21 integer (0 binary)

Root relaxation: objective 1.200000e+01, 7 iterations, 0.00 seconds

    Nodes    |    Current Node    |     Objective Bounds      |     Work
 Expl Unexpl |  Obj  Depth IntInf | Incumbent    BestBd   Gap | It/Node Time

*    0     0               0      12.0000000   12.00000  0.00%     -    0s

Explored 0 nodes (7 simplex iterations) in 0.04 seconds
Thread count was 4 (of 4 available processors)

Solution count 2: 12 -0 

Optimal solution found (tolerance 1.00e-04)
Best objective 1.200000000000e+01, best bound 1.200000000000e+01, gap 0.0000%

Gurobi 8.1.1 (mac64, Python) logging started Mon Dec  2 23:26:13 2019

Academic license - for non-commercial use only
Optimize a model with 29 rows, 20 columns and 60 nonzeros
Coefficient statistics:
  Matrix range     [1e+00, 1e+00]
  Objective range  [2e+01, 2e+03]
  Bounds range     [0e+00, 0e+00]
  RHS range        [1e+01, 9e+03]
Presolve removed 20 rows and 0 columns
Presolve time: 0.02s

Solved in 0 iterations and 0.03 seconds
Infeasible model
